(declare-fun temp10862_1 () (_ BitVec 64))
(declare-fun var342198 () (_ BitVec 64))
(declare-fun temp10862_3 () (_ BitVec 64))
(declare-fun temp10862_2 () (_ BitVec 64))
(declare-fun temp10862_5 () (_ BitVec 64))
(declare-fun temp10862_4 () (_ BitVec 64))
(declare-fun var1586267 () (_ BitVec 64))
(declare-fun temp10862_6 () (_ BitVec 64))
(declare-fun var1586268 () (_ BitVec 64))
(declare-fun var1586345 () (_ BitVec 64))
(declare-fun temp10862_8 () (_ BitVec 64))
(declare-fun temp10862_7 () (_ BitVec 64))
(declare-fun temp10862_10 () (_ BitVec 64))
(declare-fun temp10862_9 () (_ BitVec 64))
(declare-fun var3486811 () (_ BitVec 64))
(declare-fun temp10862_11 () (_ BitVec 64))
(declare-fun var3486812 () (_ BitVec 64))
(declare-fun var3486889 () (_ BitVec 64))
(declare-fun temp10862_13 () (_ BitVec 64))
(declare-fun temp10862_12 () (_ BitVec 64))
(declare-fun var4402017 () (_ BitVec 64))
(declare-fun temp10862_14 () (_ BitVec 64))
(declare-fun var4466801 () (_ BitVec 64))
(declare-fun var3487216 () (_ BitVec 64))
(declare-fun temp10862_15 () (_ BitVec 64))
(declare-fun var3487217 () (_ BitVec 64))
(declare-fun var4666940 () (_ BitVec 64))
(declare-fun temp10862_17 () (_ BitVec 64))
(declare-fun temp10862_16 () (_ BitVec 64))
(declare-fun temp10862_19 () (_ BitVec 64))
(declare-fun temp10862_18 () (_ BitVec 64))
(declare-fun var5649499 () (_ BitVec 64))
(declare-fun temp10862_20 () (_ BitVec 64))
(declare-fun var5649500 () (_ BitVec 64))
(declare-fun var5649577 () (_ BitVec 64))
(declare-fun temp10862_22 () (_ BitVec 64))
(declare-fun temp10862_21 () (_ BitVec 64))
(declare-fun var6433633 () (_ BitVec 64))
(declare-fun temp10862_23 () (_ BitVec 64))
(declare-fun var6498417 () (_ BitVec 64))
(declare-fun temp10862_24 () (_ BitVec 64))
(declare-fun var6563953 () (_ BitVec 64))
(declare-fun var1586516 () (_ BitVec 64))
(declare-fun temp10862_25 () (_ BitVec 64))
(declare-fun var1586517 () (_ BitVec 64))
(declare-fun temp10862_26 () (_ BitVec 64))
(assert (= temp10862_1 #x0000000000000000))
(assert (= var342198 temp10862_1))
(assert (= temp10862_3 #x0000000000000000))
(assert (= temp10862_2 temp10862_3))
(assert (= temp10862_5 #x0000000000000001))
(assert (= temp10862_4 temp10862_5))
(assert (= var1586267 var342198))
(assert (= temp10862_6 #x0000000000000000))
(assert (= var1586268 temp10862_6))
(assert (= var1586345 var1586268))
(assert (= temp10862_8 #x0000000000000000))
(assert (= temp10862_7 temp10862_8))
(assert (= temp10862_10 #x0000000000000001))
(assert (= temp10862_9 temp10862_10))
(assert (= var3486811 var1586267))
(assert (= temp10862_11 #x0000000000000000))
(assert (= var3486812 temp10862_11))
(assert (= var3486889 var3486812))
(assert (= temp10862_13 #x0000000000000001))
(assert (= temp10862_12 temp10862_13))
(assert (= var4402017 var3486811))
(assert (= temp10862_14 #x0000000000000000))
(assert (= var4466801 temp10862_14))
(assert (= var3487216 var3486889))
(assert (= temp10862_15 #x0000000000000000))
(assert (= var3487217
   (ite (distinct var3487216 temp10862_15)
        #x0000000000000001
        #x0000000000000000)))
(assert (= var4666940 var3487217))
(assert (= temp10862_17 #x0000000000000000))
(assert (= temp10862_16 temp10862_17))
(assert (= temp10862_19 #x0000000000000001))
(assert (= temp10862_18 temp10862_19))
(assert (= var5649499 var1586267))
(assert (= temp10862_20 #x0000000000000000))
(assert (= var5649500 temp10862_20))
(assert (= var5649577 var5649500))
(assert (= temp10862_22 #x0000000000000001))
(assert (= temp10862_21 temp10862_22))
(assert (= var6433633 var5649499))
(assert (= temp10862_23 #x0000000000000000))
(assert (= var6498417 temp10862_23))
(assert (= temp10862_24 #x0000000000000000))
(assert (= var6563953 temp10862_24))
(assert (= var1586516 var1586345))
(assert (= temp10862_25 #x0000000000000000))
(assert (= var1586517
   (ite (= var1586516 temp10862_25) #x0000000000000001 #x0000000000000000)))
(assert (= temp10862_26 #x0000000000000001))
(assert (= var1586517 temp10862_26))
(model-add temp10862_1 () (_ BitVec 64) #x0000000000000000)
(model-add var342198 () (_ BitVec 64) #x0000000000000000)
(model-add temp10862_3 () (_ BitVec 64) #x0000000000000000)
(model-add temp10862_2 () (_ BitVec 64) #x0000000000000000)
(model-add temp10862_5 () (_ BitVec 64) #x0000000000000001)
(model-add temp10862_4 () (_ BitVec 64) #x0000000000000001)
(model-add var1586267 () (_ BitVec 64) #x0000000000000000)
(model-add temp10862_6 () (_ BitVec 64) #x0000000000000000)
(model-add var1586268 () (_ BitVec 64) #x0000000000000000)
(model-add var1586345 () (_ BitVec 64) #x0000000000000000)
(model-add temp10862_8 () (_ BitVec 64) #x0000000000000000)
(model-add temp10862_7 () (_ BitVec 64) #x0000000000000000)
(model-add temp10862_10 () (_ BitVec 64) #x0000000000000001)
(model-add temp10862_9 () (_ BitVec 64) #x0000000000000001)
(model-add var3486811 () (_ BitVec 64) #x0000000000000000)
(model-add temp10862_11 () (_ BitVec 64) #x0000000000000000)
(model-add var3486812 () (_ BitVec 64) #x0000000000000000)
(model-add var3486889 () (_ BitVec 64) #x0000000000000000)
(model-add temp10862_13 () (_ BitVec 64) #x0000000000000001)
(model-add temp10862_12 () (_ BitVec 64) #x0000000000000001)
(model-add var4402017 () (_ BitVec 64) #x0000000000000000)
(model-add temp10862_14 () (_ BitVec 64) #x0000000000000000)
(model-add var4466801 () (_ BitVec 64) #x0000000000000000)
(model-add var3487216 () (_ BitVec 64) #x0000000000000000)
(model-add temp10862_15 () (_ BitVec 64) #x0000000000000000)
(model-add var3487217 () (_ BitVec 64) #x0000000000000000)
(model-add var4666940 () (_ BitVec 64) #x0000000000000000)
(model-add temp10862_17 () (_ BitVec 64) #x0000000000000000)
(model-add temp10862_16 () (_ BitVec 64) #x0000000000000000)
(model-add temp10862_19 () (_ BitVec 64) #x0000000000000001)
(model-add temp10862_18 () (_ BitVec 64) #x0000000000000001)
(model-add var5649499 () (_ BitVec 64) #x0000000000000000)
(model-add temp10862_20 () (_ BitVec 64) #x0000000000000000)
(model-add var5649500 () (_ BitVec 64) #x0000000000000000)
(model-add var5649577 () (_ BitVec 64) #x0000000000000000)
(model-add temp10862_22 () (_ BitVec 64) #x0000000000000001)
(model-add temp10862_21 () (_ BitVec 64) #x0000000000000001)
(model-add var6433633 () (_ BitVec 64) #x0000000000000000)
(model-add temp10862_23 () (_ BitVec 64) #x0000000000000000)
(model-add var6498417 () (_ BitVec 64) #x0000000000000000)
(model-add temp10862_24 () (_ BitVec 64) #x0000000000000000)
(model-add var6563953 () (_ BitVec 64) #x0000000000000000)
(model-add var1586516 () (_ BitVec 64) #x0000000000000000)
(model-add temp10862_25 () (_ BitVec 64) #x0000000000000000)
(model-add var1586517 () (_ BitVec 64) #x0000000000000001)
(model-add temp10862_26 () (_ BitVec 64) #x0000000000000001)





